c nIsolatedPIs 0
c maxPI 32
p cnf 101 208
c gate 33 -10 26 0
-10 -33 0
26 -33 0
10 -26 33 0
c gate 34 -9 25 0
-9 -34 0
25 -34 0
9 -25 34 0
c gate 35 -7 23 0
-7 -35 0
23 -35 0
7 -23 35 0
c gate 36 -4 20 0
-4 -36 0
20 -36 0
4 -20 36 0
c gate 37 -3 19 0
-3 -37 0
19 -37 0
3 -19 37 0
c gate 38 2 -18 0
2 -38 0
-18 -38 0
-2 18 38 0
c gate 39 -1 17 0
-1 -39 0
17 -39 0
1 -17 39 0
c gate 40 -2 18 0
-2 -40 0
18 -40 0
2 -18 40 0
c gate 41 -39 -40 0
-39 -41 0
-40 -41 0
39 40 41 0
c gate 42 3 -19 0
3 -42 0
-19 -42 0
-3 19 42 0
c gate 43 -41 -42 0
-41 -43 0
-42 -43 0
41 42 43 0
c gate 44 -38 43 0
-38 -44 0
43 -44 0
38 -43 44 0
c gate 45 -37 -44 0
-37 -45 0
-44 -45 0
37 44 45 0
c gate 46 -36 45 0
-36 -46 0
45 -46 0
36 -45 46 0
c gate 47 4 -20 0
4 -47 0
-20 -47 0
-4 20 47 0
c gate 48 5 21 0
5 -48 0
21 -48 0
-5 -21 48 0
c gate 49 -5 -21 0
-5 -49 0
-21 -49 0
5 21 49 0
c gate 50 -48 -49 0
-48 -50 0
-49 -50 0
48 49 50 0
c gate 51 -47 -50 0
-47 -51 0
-50 -51 0
47 50 51 0
c gate 52 -46 51 0
-46 -52 0
51 -52 0
46 -51 52 0
c gate 53 6 22 0
6 -53 0
22 -53 0
-6 -22 53 0
c gate 54 -6 -22 0
-6 -54 0
-22 -54 0
6 22 54 0
c gate 55 -53 -54 0
-53 -55 0
-54 -55 0
53 54 55 0
c gate 56 -5 21 0
-5 -56 0
21 -56 0
5 -21 56 0
c gate 57 -55 -56 0
-55 -57 0
-56 -57 0
55 56 57 0
c gate 58 -52 57 0
-52 -58 0
57 -58 0
52 -57 58 0
c gate 59 -35 58 0
-35 -59 0
58 -59 0
35 -58 59 0
c gate 60 7 -23 0
7 -60 0
-23 -60 0
-7 23 60 0
c gate 61 6 -22 0
6 -61 0
-22 -61 0
-6 22 61 0
c gate 62 -35 61 0
-35 -62 0
61 -62 0
35 -61 62 0
c gate 63 -60 -62 0
-60 -63 0
-62 -63 0
60 62 63 0
c gate 64 -59 63 0
-59 -64 0
63 -64 0
59 -63 64 0
c gate 65 8 24 0
8 -65 0
24 -65 0
-8 -24 65 0
c gate 66 -8 -24 0
-8 -66 0
-24 -66 0
8 24 66 0
c gate 67 -65 -66 0
-65 -67 0
-66 -67 0
65 66 67 0
c gate 68 -64 -67 0
-64 -68 0
-67 -68 0
64 67 68 0
c gate 69 8 -24 0
8 -69 0
-24 -69 0
-8 24 69 0
c gate 70 9 -25 0
9 -70 0
-25 -70 0
-9 25 70 0
c gate 71 -69 -70 0
-69 -71 0
-70 -71 0
69 70 71 0
c gate 72 -68 71 0
-68 -72 0
71 -72 0
68 -71 72 0
c gate 73 -34 -72 0
-34 -73 0
-72 -73 0
34 72 73 0
c gate 74 10 -26 0
10 -74 0
-26 -74 0
-10 26 74 0
c gate 75 -33 -74 0
-33 -75 0
-74 -75 0
33 74 75 0
c gate 76 -73 75 0
-73 -76 0
75 -76 0
73 -75 76 0
c gate 77 -33 -76 0
-33 -77 0
-76 -77 0
33 76 77 0
c gate 78 -11 -27 0
-11 -78 0
-27 -78 0
11 27 78 0
c gate 79 11 27 0
11 -79 0
27 -79 0
-11 -27 79 0
c gate 80 -78 -79 0
-78 -80 0
-79 -80 0
78 79 80 0
c gate 81 -77 -80 0
-77 -81 0
-80 -81 0
77 80 81 0
c gate 82 -15 -31 0
-15 -82 0
-31 -82 0
15 31 82 0
c gate 83 15 31 0
15 -83 0
31 -83 0
-15 -31 83 0
c gate 84 -82 -83 0
-82 -84 0
-83 -84 0
82 83 84 0
c gate 85 -14 -30 0
-14 -85 0
-30 -85 0
14 30 85 0
c gate 86 14 30 0
14 -86 0
30 -86 0
-14 -30 86 0
c gate 87 -85 -86 0
-85 -87 0
-86 -87 0
85 86 87 0
c gate 88 -84 -87 0
-84 -88 0
-87 -88 0
84 87 88 0
c gate 89 -13 -29 0
-13 -89 0
-29 -89 0
13 29 89 0
c gate 90 13 29 0
13 -90 0
29 -90 0
-13 -29 90 0
c gate 91 -89 -90 0
-89 -91 0
-90 -91 0
89 90 91 0
c gate 92 12 28 0
12 -92 0
28 -92 0
-12 -28 92 0
c gate 93 -12 -28 0
-12 -93 0
-28 -93 0
12 28 93 0
c gate 94 -92 -93 0
-92 -94 0
-93 -94 0
92 93 94 0
c gate 95 -16 -32 0
-16 -95 0
-32 -95 0
16 32 95 0
c gate 96 16 32 0
16 -96 0
32 -96 0
-16 -32 96 0
c gate 97 -95 -96 0
-95 -97 0
-96 -97 0
95 96 97 0
c gate 98 -94 -97 0
-94 -98 0
-97 -98 0
94 97 98 0
c gate 99 -91 98 0
-91 -99 0
98 -99 0
91 -98 99 0
c gate 100 88 99 0
88 -100 0
99 -100 0
-88 -99 100 0
c gate 101 81 100 0
81 -101 0
100 -101 0
-81 -100 101 0
c PO
101 0
